Route #1: 1 8 17 19 30 20 33 22 42
Route #2: 1 3 37 15 27 25 40 36 16 21 41
Route #3: 1 7 14 38 35 9 43 31 12
Route #4: 1 18 6 2 13 29 26
Route #5: 1 24 11 10
Route #6: 1 4 34 44 32 28
Route #7: 1 5 39 23
cost 1018
